11650.0
1, 20, 46, 74, 88, 89, 106, 113, 147, 157, 163, 164, 169, 188, 191, 203, 233, 242, 265, 268, 270, 271, 273, 292, 294, 307, 309, 323, 343, 375, 391, 422, 423, 424, 425, 432, 487, 490, 546, 562, 583, 585, 634, 637, 663, 665, 668, 694, 721, 757, 758, 767, 779, 780, 833, 838, 855, 880, 883, 892, 909, 921, 946, 957, 959, 986, 988